decision_x1=[0,2];
decision_x2=[0,2];
decision_x3=[0,2];
decision_x4=[0,2];
decision_x5=[0,2];
decision_x6=[0,2];
decision_x7=[0,2];
decision_x8=[0,2];
decision_x9=[0,2];
decision_x10=[0,2];
decision_x11=[0,2];
decision_x12=[0,2];
decision_x13=[0,2];
decision_x14=[0,2];
decision_x15=[0,2];
decision_x16=[0,2];
decision_x17=[0,2];
decision_x18=[0,2];
decision_x19=[0,2];
decision_x20=[0,2];
decision_x21=[0,2];
decision_x22=[0,2];
decision_x23=[0,2];
decision_x24=[0,2];
decision_x25=[0,2];
decision_x26=[0,2];
decision_x27=[0,2];
decision_x28=[0,2];
decision_x29=[0,2];
decision_x30=[0,2];
decision_x31=[0,2];
decision_x32=[0,2];
decision_x33=[0,2];
decision_x34=[0,2];
decision_x35=[0,2];
random_y1=[0,2];
random_y2=[0,2];
random_y3=[0,2];
random_y4=[0,2];
random_y5=[0,2];
random_y6=[0,2];
random_y7=[0,2];
constraint_x4_x1=[
0,0,3.2|
0,1,8|
0,2,1.9|
1,0,2.2|
1,1,8.7|
1,2,3.6|
2,0,5.4|
2,1,9.7|
2,2,1|
];
constraint_x4_x3=[
0,0,0.86|
0,1,7.1|
0,2,1.9|
1,0,4.9|
1,1,6.8|
1,2,1.5|
2,0,0.055|
2,1,4.4|
2,2,1.9|
];
constraint_x5_x1=[
0,0,8.1|
0,1,8.4|
0,2,3.1|
1,0,6.2|
1,1,7.1|
1,2,5.7|
2,0,4.9|
2,1,3.5|
2,2,4.1|
];
constraint_x5_x2=[
0,0,6.3|
0,1,5.7|
0,2,0.63|
1,0,9|
1,1,6|
1,2,8.4|
2,0,8.2|
2,1,9.3|
2,2,4.3|
];
constraint_x6_x1=[
0,0,4.3|
0,1,4.3|
0,2,1.6|
1,0,0.41|
1,1,7|
1,2,1.4|
2,0,0.57|
2,1,5.2|
2,2,6.2|
];
constraint_x6_x4=[
0,0,2.4|
0,1,4.9|
0,2,3.4|
1,0,4|
1,1,1|
1,2,2.5|
2,0,9.2|
2,1,5.9|
2,2,3.1|
];
constraint_x7_x1=[
0,0,8|
0,1,8.2|
0,2,4.5|
1,0,5.1|
1,1,9.2|
1,2,9.3|
2,0,7.3|
2,1,7.2|
2,2,7.6|
];
constraint_x7_x2=[
0,0,9.1|
0,1,4.4|
0,2,7.2|
1,0,7.6|
1,1,4.2|
1,2,9.9|
2,0,0.075|
2,1,1.5|
2,2,8|
];
constraint_x7_x5=[
0,0,1.4|
0,1,6.6|
0,2,6.5|
1,0,0.36|
1,1,5|
1,2,6.6|
2,0,1.6|
2,1,5|
2,2,2.1|
];
constraint_x7_x6=[
0,0,8.1|
0,1,2.1|
0,2,2.8|
1,0,4.6|
1,1,7.7|
1,2,5.6|
2,0,10|
2,1,8.1|
2,2,8|
];
constraint_x8_x1=[
0,0,2.1|
0,1,8.4|
0,2,1.6|
1,0,6.8|
1,1,7.5|
1,2,3.9|
2,0,0.89|
2,1,4|
2,2,1.7|
];
constraint_x8_x2=[
0,0,4.6|
0,1,0.81|
0,2,4.9|
1,0,2.8|
1,1,2.7|
1,2,1.7|
2,0,8.5|
2,1,5.5|
2,2,2.4|
];
constraint_x9_x1=[
0,0,1|
0,1,1|
0,2,4.9|
1,0,2|
1,1,6|
1,2,8.7|
2,0,7.7|
2,1,7.9|
2,2,8.3|
];
constraint_x9_x2=[
0,0,2|
0,1,7.8|
0,2,0.44|
1,0,8.3|
1,1,3.3|
1,2,2.5|
2,0,7.6|
2,1,8|
2,2,3.4|
];
constraint_x9_x3=[
0,0,7.4|
0,1,6.8|
0,2,5.9|
1,0,9.9|
1,1,4.5|
1,2,0.3|
2,0,4.6|
2,1,1.7|
2,2,5.6|
];
constraint_x9_x4=[
0,0,1.5|
0,1,8|
0,2,6|
1,0,9|
1,1,5|
1,2,1.5|
2,0,4.1|
2,1,0.3|
2,2,4.9|
];
constraint_x9_x6=[
0,0,9.1|
0,1,8.4|
0,2,5.9|
1,0,4.5|
1,1,8.5|
1,2,6|
2,0,8.6|
2,1,1.4|
2,2,7.3|
];
constraint_x9_x8=[
0,0,4.5|
0,1,4.4|
0,2,7.3|
1,0,1.4|
1,1,6.5|
1,2,1.3|
2,0,1.1|
2,1,0.56|
2,2,3.7|
];
constraint_x10_x2=[
0,0,1|
0,1,8.6|
0,2,6.1|
1,0,4.1|
1,1,0.94|
1,2,4.6|
2,0,4|
2,1,5.7|
2,2,8.7|
];
constraint_x10_x5=[
0,0,1.6|
0,1,2.7|
0,2,0.55|
1,0,9.7|
1,1,0.34|
1,2,4.9|
2,0,8.5|
2,1,0.011|
2,2,7.8|
];
constraint_x10_x8=[
0,0,6.7|
0,1,6.7|
0,2,6.6|
1,0,5.8|
1,1,5.9|
1,2,1.6|
2,0,6.1|
2,1,6.7|
2,2,7|
];
constraint_x10_x9=[
0,0,5.5|
0,1,4.5|
0,2,7.5|
1,0,4.6|
1,1,4.8|
1,2,3.3|
2,0,2.4|
2,1,5.2|
2,2,8.8|
];
constraint_x11_x3=[
0,0,1.9|
0,1,7.4|
0,2,6.2|
1,0,5.4|
1,1,4.4|
1,2,5.6|
2,0,2.4|
2,1,2|
2,2,0.14|
];
constraint_x11_x5=[
0,0,7.7|
0,1,9.2|
0,2,3.5|
1,0,8.9|
1,1,9.4|
1,2,6.7|
2,0,1.2|
2,1,5.3|
2,2,9.4|
];
constraint_x11_x9=[
0,0,0.74|
0,1,9.7|
0,2,3.4|
1,0,4|
1,1,7.6|
1,2,3.5|
2,0,7.2|
2,1,8.4|
2,2,5.6|
];
constraint_x12_x3=[
0,0,8.9|
0,1,7.4|
0,2,9.7|
1,0,9.4|
1,1,3.3|
1,2,7.7|
2,0,3.3|
2,1,5.9|
2,2,5.2|
];
constraint_x12_x4=[
0,0,2.3|
0,1,1.8|
0,2,7.1|
1,0,8.9|
1,1,8.5|
1,2,1.1|
2,0,1.7|
2,1,0.95|
2,2,5.5|
];
constraint_x12_x5=[
0,0,8.9|
0,1,8.5|
0,2,5.8|
1,0,9.4|
1,1,6.4|
1,2,0.55|
2,0,6.6|
2,1,6.4|
2,2,9.4|
];
constraint_x12_x6=[
0,0,3.7|
0,1,8.3|
0,2,7.1|
1,0,6.9|
1,1,0.2|
1,2,9.2|
2,0,5.7|
2,1,3.6|
2,2,6.7|
];
constraint_x12_x7=[
0,0,3.4|
0,1,2.3|
0,2,2.3|
1,0,1.5|
1,1,8.8|
1,2,8.3|
2,0,8|
2,1,2|
2,2,3.9|
];
constraint_x12_x9=[
0,0,1.2|
0,1,7.2|
0,2,5.5|
1,0,0.62|
1,1,0.61|
1,2,2.5|
2,0,6.1|
2,1,9.1|
2,2,4.2|
];
constraint_x12_x11=[
0,0,10|
0,1,1.5|
0,2,1.7|
1,0,9.3|
1,1,3.2|
1,2,0.5|
2,0,9.8|
2,1,1.7|
2,2,1.3|
];
constraint_x13_x4=[
0,0,1.3|
0,1,9.2|
0,2,3.7|
1,0,3.4|
1,1,6.1|
1,2,8.2|
2,0,0.026|
2,1,9.7|
2,2,5.9|
];
constraint_x13_x5=[
0,0,4.5|
0,1,5.9|
0,2,0.75|
1,0,8.8|
1,1,6.5|
1,2,2.2|
2,0,7.7|
2,1,2.6|
2,2,7.8|
];
constraint_x13_x6=[
0,0,6.5|
0,1,7.3|
0,2,6|
1,0,1.5|
1,1,4.6|
1,2,0.96|
2,0,1.8|
2,1,2.3|
2,2,4.5|
];
constraint_x13_x8=[
0,0,7.6|
0,1,6|
0,2,4.4|
1,0,4.3|
1,1,3.2|
1,2,5.4|
2,0,9.7|
2,1,3.6|
2,2,4.5|
];
constraint_x13_x9=[
0,0,0.42|
0,1,4.5|
0,2,6.5|
1,0,5.2|
1,1,5.5|
1,2,0.27|
2,0,5.1|
2,1,7.4|
2,2,9.1|
];
constraint_x13_x10=[
0,0,3.1|
0,1,3.3|
0,2,0.67|
1,0,9.6|
1,1,5.8|
1,2,7.2|
2,0,7.4|
2,1,7.7|
2,2,1.8|
];
constraint_x13_x11=[
0,0,0.11|
0,1,4.8|
0,2,4.3|
1,0,9.4|
1,1,0.4|
1,2,5.8|
2,0,6.2|
2,1,9.2|
2,2,0.19|
];
constraint_x14_x3=[
0,0,5.5|
0,1,2.3|
0,2,7.8|
1,0,1.9|
1,1,2.7|
1,2,2.7|
2,0,1.3|
2,1,1.9|
2,2,3.1|
];
constraint_x14_x5=[
0,0,2.4|
0,1,0.45|
0,2,2.9|
1,0,5.3|
1,1,5.1|
1,2,2.5|
2,0,2.8|
2,1,2|
2,2,2.5|
];
constraint_x14_x11=[
0,0,7.3|
0,1,9.1|
0,2,5.7|
1,0,5.6|
1,1,4.8|
1,2,2.9|
2,0,2|
2,1,7.8|
2,2,7.6|
];
constraint_x14_x12=[
0,0,8.2|
0,1,5|
0,2,8.8|
1,0,0.92|
1,1,0.45|
1,2,3.4|
2,0,9.7|
2,1,3.4|
2,2,9.5|
];
constraint_x14_x13=[
0,0,5.3|
0,1,9|
0,2,1.8|
1,0,0.6|
1,1,9.2|
1,2,9.8|
2,0,5.7|
2,1,2.8|
2,2,9.1|
];
constraint_x15_x1=[
0,0,5.3|
0,1,5|
0,2,3.9|
1,0,8.4|
1,1,6|
1,2,8.1|
2,0,6.1|
2,1,3.8|
2,2,1.2|
];
constraint_x15_x2=[
0,0,3.7|
0,1,5.6|
0,2,5.8|
1,0,8|
1,1,9.3|
1,2,7.8|
2,0,3|
2,1,4.4|
2,2,4.4|
];
constraint_x15_x4=[
0,0,9.6|
0,1,4.1|
0,2,4.2|
1,0,6.2|
1,1,1.2|
1,2,7.8|
2,0,2.5|
2,1,0.63|
2,2,4|
];
constraint_x15_x5=[
0,0,0.00027|
0,1,2.2|
0,2,9.7|
1,0,8.2|
1,1,4.1|
1,2,9.3|
2,0,3.9|
2,1,7.4|
2,2,0.58|
];
constraint_x15_x6=[
0,0,3.2|
0,1,7.8|
0,2,8.3|
1,0,9.3|
1,1,1.4|
1,2,0.13|
2,0,0.5|
2,1,5.9|
2,2,7.1|
];
constraint_x15_x7=[
0,0,2.7|
0,1,8|
0,2,5.6|
1,0,7.2|
1,1,6.7|
1,2,8.8|
2,0,2|
2,1,0.51|
2,2,0.84|
];
constraint_x15_x9=[
0,0,5.9|
0,1,5.1|
0,2,3.9|
1,0,0.41|
1,1,9.6|
1,2,2.5|
2,0,8.6|
2,1,7.3|
2,2,6.4|
];
constraint_x15_x11=[
0,0,7.7|
0,1,9.6|
0,2,8.7|
1,0,8.6|
1,1,3.5|
1,2,0.32|
2,0,6.9|
2,1,6.9|
2,2,6|
];
constraint_x15_x12=[
0,0,0.73|
0,1,7.7|
0,2,6|
1,0,1.5|
1,1,4.4|
1,2,6.7|
2,0,8.2|
2,1,6.4|
2,2,2.4|
];
constraint_x15_x13=[
0,0,6.8|
0,1,6.7|
0,2,6.6|
1,0,3.7|
1,1,7.8|
1,2,6.3|
2,0,9.1|
2,1,8.5|
2,2,9.7|
];
constraint_x16_x2=[
0,0,5.4|
0,1,7.5|
0,2,2.2|
1,0,2.1|
1,1,0.26|
1,2,4|
2,0,9.4|
2,1,6.9|
2,2,2.1|
];
constraint_x16_x3=[
0,0,4.1|
0,1,4.8|
0,2,4.6|
1,0,8.1|
1,1,9.4|
1,2,6.1|
2,0,5.9|
2,1,7.6|
2,2,4.3|
];
constraint_x16_x6=[
0,0,6.6|
0,1,4.4|
0,2,3.9|
1,0,5.7|
1,1,0.097|
1,2,2.8|
2,0,3.2|
2,1,6.6|
2,2,1.2|
];
constraint_x16_x11=[
0,0,9.2|
0,1,6.7|
0,2,5.5|
1,0,9.2|
1,1,6.1|
1,2,1.5|
2,0,5.5|
2,1,0.79|
2,2,9.3|
];
constraint_x16_x14=[
0,0,8.6|
0,1,1.6|
0,2,6.3|
1,0,5.8|
1,1,3.9|
1,2,1.9|
2,0,4.7|
2,1,4.3|
2,2,2|
];
constraint_x17_x3=[
0,0,1.9|
0,1,8|
0,2,1.4|
1,0,3.4|
1,1,8.9|
1,2,2.4|
2,0,1.9|
2,1,5|
2,2,8.3|
];
constraint_x17_x4=[
0,0,8.7|
0,1,7.2|
0,2,6.6|
1,0,3.4|
1,1,3.5|
1,2,5.1|
2,0,6.5|
2,1,5.9|
2,2,5.9|
];
constraint_x17_x7=[
0,0,8.5|
0,1,2|
0,2,2.2|
1,0,4|
1,1,2.7|
1,2,9.2|
2,0,3|
2,1,0.73|
2,2,5.5|
];
constraint_x17_x10=[
0,0,3.5|
0,1,2.8|
0,2,9.9|
1,0,7.1|
1,1,3.5|
1,2,2.6|
2,0,4.5|
2,1,5.8|
2,2,4.4|
];
constraint_x17_x11=[
0,0,7.1|
0,1,2|
0,2,0.014|
1,0,7.4|
1,1,5.7|
1,2,2.1|
2,0,9.1|
2,1,6.4|
2,2,3.6|
];
constraint_x17_x12=[
0,0,0.36|
0,1,4|
0,2,6.9|
1,0,7.9|
1,1,9.8|
1,2,7.5|
2,0,7.9|
2,1,7.2|
2,2,3.2|
];
constraint_x17_x14=[
0,0,1.8|
0,1,8|
0,2,8.1|
1,0,7.9|
1,1,9.5|
1,2,4.7|
2,0,9.9|
2,1,0.9|
2,2,0.2|
];
constraint_x17_x16=[
0,0,3.3|
0,1,1|
0,2,6.7|
1,0,3.1|
1,1,4.5|
1,2,0.35|
2,0,2.8|
2,1,7.3|
2,2,4.4|
];
constraint_x18_x4=[
0,0,8|
0,1,6.6|
0,2,2.4|
1,0,6.8|
1,1,6.3|
1,2,2.2|
2,0,5.6|
2,1,6|
2,2,1.4|
];
constraint_x18_x5=[
0,0,1.9|
0,1,3.3|
0,2,1.5|
1,0,10|
1,1,9.5|
1,2,9.6|
2,0,1.2|
2,1,8.7|
2,2,7.9|
];
constraint_x18_x9=[
0,0,5|
0,1,7.1|
0,2,6.6|
1,0,8.2|
1,1,5.6|
1,2,3.6|
2,0,1.2|
2,1,9.9|
2,2,1.2|
];
constraint_x18_x13=[
0,0,5.3|
0,1,2.4|
0,2,9.3|
1,0,9.8|
1,1,5.2|
1,2,9.8|
2,0,3.3|
2,1,3|
2,2,6.9|
];
constraint_x19_x2=[
0,0,0.37|
0,1,3.7|
0,2,2.4|
1,0,9|
1,1,9.4|
1,2,8.8|
2,0,2.1|
2,1,0.11|
2,2,1.8|
];
constraint_x19_x5=[
0,0,5.3|
0,1,4.3|
0,2,8.8|
1,0,8.7|
1,1,7.6|
1,2,0.15|
2,0,6.1|
2,1,7.5|
2,2,8.9|
];
constraint_x19_x6=[
0,0,8.7|
0,1,5.5|
0,2,0.74|
1,0,7.5|
1,1,7.9|
1,2,2.5|
2,0,6.3|
2,1,3.9|
2,2,1.5|
];
constraint_x19_x7=[
0,0,8.8|
0,1,8.7|
0,2,7.2|
1,0,0.31|
1,1,7.3|
1,2,2.4|
2,0,4.5|
2,1,3.2|
2,2,1|
];
constraint_x19_x9=[
0,0,2.5|
0,1,0.51|
0,2,5.7|
1,0,0.18|
1,1,0.97|
1,2,4.3|
2,0,3.3|
2,1,0.66|
2,2,3.1|
];
constraint_x19_x13=[
0,0,6.9|
0,1,6.4|
0,2,3.5|
1,0,1|
1,1,0.3|
1,2,1.6|
2,0,0.6|
2,1,6.7|
2,2,2.4|
];
constraint_x19_x15=[
0,0,8.3|
0,1,3.4|
0,2,4.6|
1,0,0.48|
1,1,5.1|
1,2,0.26|
2,0,6.9|
2,1,6.6|
2,2,3.6|
];
constraint_x19_x17=[
0,0,3.6|
0,1,9.8|
0,2,7.7|
1,0,4.4|
1,1,1.7|
1,2,6.3|
2,0,9.8|
2,1,7.1|
2,2,4.5|
];
constraint_x20_x6=[
0,0,8.1|
0,1,8.5|
0,2,7.3|
1,0,8.3|
1,1,2|
1,2,0.0098|
2,0,7.1|
2,1,5.1|
2,2,0.2|
];
constraint_x20_x12=[
0,0,3.7|
0,1,5.6|
0,2,6.5|
1,0,2|
1,1,7|
1,2,5.3|
2,0,8.7|
2,1,2.4|
2,2,7.4|
];
constraint_x20_x14=[
0,0,7.5|
0,1,8.4|
0,2,4.1|
1,0,1.2|
1,1,1.6|
1,2,0.56|
2,0,0.62|
2,1,0.58|
2,2,6.5|
];
constraint_x20_x16=[
0,0,5|
0,1,7.1|
0,2,6.2|
1,0,2.1|
1,1,2.8|
1,2,6|
2,0,5.1|
2,1,9.3|
2,2,9.3|
];
constraint_x20_x17=[
0,0,0.067|
0,1,9|
0,2,3.7|
1,0,3.5|
1,1,9.6|
1,2,9.5|
2,0,4.4|
2,1,0.99|
2,2,7.1|
];
constraint_x20_x19=[
0,0,0.043|
0,1,1.7|
0,2,7.8|
1,0,9.9|
1,1,8.5|
1,2,4.1|
2,0,5.1|
2,1,7.1|
2,2,7.1|
];
constraint_x21_x3=[
0,0,4.8|
0,1,0.028|
0,2,2.3|
1,0,3.1|
1,1,6.4|
1,2,2.2|
2,0,0.16|
2,1,1.3|
2,2,5.3|
];
constraint_x21_x4=[
0,0,0.99|
0,1,4.1|
0,2,3.6|
1,0,4.8|
1,1,0.85|
1,2,6.2|
2,0,9.7|
2,1,7.1|
2,2,8.4|
];
constraint_x21_x5=[
0,0,1.8|
0,1,8.3|
0,2,4.9|
1,0,9.3|
1,1,6.4|
1,2,0.76|
2,0,6.8|
2,1,9.1|
2,2,3.1|
];
constraint_x21_x7=[
0,0,4.9|
0,1,4.4|
0,2,8.9|
1,0,3.4|
1,1,2.2|
1,2,9.3|
2,0,6.5|
2,1,7|
2,2,9.9|
];
constraint_x21_x8=[
0,0,6.8|
0,1,0.19|
0,2,8.6|
1,0,9|
1,1,3|
1,2,1|
2,0,4|
2,1,2.2|
2,2,1.7|
];
constraint_x21_x9=[
0,0,7.7|
0,1,6.2|
0,2,5.1|
1,0,1.8|
1,1,4.8|
1,2,9.8|
2,0,5.5|
2,1,6.8|
2,2,4.3|
];
constraint_x21_x10=[
0,0,5.2|
0,1,5.8|
0,2,2.8|
1,0,9.7|
1,1,5.6|
1,2,3.9|
2,0,7.3|
2,1,9.9|
2,2,7.6|
];
constraint_x21_x11=[
0,0,2.3|
0,1,9|
0,2,1.9|
1,0,7.6|
1,1,9.1|
1,2,3|
2,0,8.1|
2,1,3.7|
2,2,6.4|
];
constraint_x21_x12=[
0,0,2.4|
0,1,2.6|
0,2,4.6|
1,0,4.9|
1,1,0.9|
1,2,4.2|
2,0,9.3|
2,1,0.55|
2,2,2.8|
];
constraint_x21_x13=[
0,0,8.1|
0,1,2.4|
0,2,8.3|
1,0,8.2|
1,1,6.9|
1,2,0.77|
2,0,4.3|
2,1,1.5|
2,2,7.6|
];
constraint_x21_x14=[
0,0,7|
0,1,2.4|
0,2,0.44|
1,0,3.6|
1,1,9.2|
1,2,1|
2,0,8.5|
2,1,9.1|
2,2,1.5|
];
constraint_x21_x16=[
0,0,8|
0,1,6.3|
0,2,2.1|
1,0,1.2|
1,1,2.1|
1,2,1.1|
2,0,3.5|
2,1,3.8|
2,2,6.8|
];
constraint_x21_x17=[
0,0,2.9|
0,1,8.5|
0,2,0.7|
1,0,5.6|
1,1,2.8|
1,2,9.8|
2,0,4.1|
2,1,0.75|
2,2,8|
];
constraint_x21_x20=[
0,0,3.6|
0,1,6.1|
0,2,2.3|
1,0,4.4|
1,1,4|
1,2,1.8|
2,0,7.8|
2,1,8.7|
2,2,0.39|
];
constraint_x22_x5=[
0,0,7.9|
0,1,8.5|
0,2,6.1|
1,0,2.1|
1,1,1.7|
1,2,7.1|
2,0,8.5|
2,1,3.2|
2,2,6.7|
];
constraint_x22_x6=[
0,0,5.7|
0,1,0.42|
0,2,0.37|
1,0,6.6|
1,1,7.5|
1,2,7.3|
2,0,0.44|
2,1,5.7|
2,2,5.7|
];
constraint_x22_x7=[
0,0,8.9|
0,1,8.5|
0,2,2.9|
1,0,8.6|
1,1,7.1|
1,2,2.4|
2,0,4.9|
2,1,3.5|
2,2,7|
];
constraint_x22_x8=[
0,0,8.6|
0,1,9|
0,2,6.9|
1,0,0.89|
1,1,0.73|
1,2,9.6|
2,0,3.7|
2,1,3.5|
2,2,7.3|
];
constraint_x22_x10=[
0,0,5.7|
0,1,8.1|
0,2,4.9|
1,0,7.7|
1,1,4|
1,2,9.4|
2,0,7.2|
2,1,1.8|
2,2,8.1|
];
constraint_x22_x11=[
0,0,5.5|
0,1,5.9|
0,2,5.7|
1,0,4.7|
1,1,0.18|
1,2,5.6|
2,0,6.5|
2,1,3.9|
2,2,6.5|
];
constraint_x22_x13=[
0,0,2.1|
0,1,1.4|
0,2,9.4|
1,0,7.7|
1,1,9.2|
1,2,2.5|
2,0,8.5|
2,1,7.8|
2,2,1.4|
];
constraint_x22_x14=[
0,0,4.5|
0,1,4.9|
0,2,2.3|
1,0,1.2|
1,1,8.6|
1,2,7.5|
2,0,7.6|
2,1,4.5|
2,2,6.7|
];
constraint_x22_x16=[
0,0,8|
0,1,7.3|
0,2,6.6|
1,0,7.3|
1,1,6.5|
1,2,1.9|
2,0,0.26|
2,1,7.7|
2,2,6.1|
];
constraint_x22_x17=[
0,0,5.5|
0,1,4.9|
0,2,6.1|
1,0,1.5|
1,1,1.7|
1,2,5.5|
2,0,6.1|
2,1,7.5|
2,2,9.5|
];
constraint_x23_x1=[
0,0,9.8|
0,1,1.7|
0,2,7.6|
1,0,4.1|
1,1,4.7|
1,2,9.7|
2,0,0.68|
2,1,4|
2,2,6.8|
];
constraint_x23_x2=[
0,0,4.5|
0,1,6.6|
0,2,4.3|
1,0,8.9|
1,1,6.4|
1,2,0.66|
2,0,8.1|
2,1,4.4|
2,2,8.7|
];
constraint_x23_x5=[
0,0,0.71|
0,1,0.57|
0,2,7.7|
1,0,8.4|
1,1,8.3|
1,2,0.57|
2,0,7.5|
2,1,0.63|
2,2,6.2|
];
constraint_x23_x6=[
0,0,5.8|
0,1,7.2|
0,2,3.9|
1,0,8.4|
1,1,9.5|
1,2,2.7|
2,0,6.6|
2,1,8.3|
2,2,8.3|
];
constraint_x23_x7=[
0,0,0.093|
0,1,9|
0,2,7.1|
1,0,6.6|
1,1,7.5|
1,2,7.9|
2,0,3|
2,1,5.1|
2,2,3.4|
];
constraint_x23_x9=[
0,0,9.4|
0,1,3.8|
0,2,6.4|
1,0,0.56|
1,1,9.3|
1,2,4.7|
2,0,6.4|
2,1,4|
2,2,0.23|
];
constraint_x23_x10=[
0,0,9.2|
0,1,4.3|
0,2,4.2|
1,0,1|
1,1,8.6|
1,2,8.4|
2,0,7.5|
2,1,9.1|
2,2,7.4|
];
constraint_x23_x11=[
0,0,0.16|
0,1,8.3|
0,2,4.5|
1,0,1.5|
1,1,3.8|
1,2,0.039|
2,0,0.88|
2,1,4.3|
2,2,3|
];
constraint_x23_x12=[
0,0,6.7|
0,1,2.6|
0,2,7.2|
1,0,7.5|
1,1,4.1|
1,2,7.4|
2,0,6.4|
2,1,6|
2,2,10|
];
constraint_x23_x13=[
0,0,2.8|
0,1,9.1|
0,2,8.6|
1,0,2.7|
1,1,8.5|
1,2,0.4|
2,0,3.4|
2,1,8.7|
2,2,2.2|
];
constraint_x23_x15=[
0,0,2.2|
0,1,6.5|
0,2,2.4|
1,0,9.6|
1,1,9|
1,2,8.1|
2,0,2.7|
2,1,0.04|
2,2,4.6|
];
constraint_x23_x18=[
0,0,7.4|
0,1,8.4|
0,2,7.5|
1,0,1.4|
1,1,1.6|
1,2,7.3|
2,0,10|
2,1,4.4|
2,2,7.3|
];
constraint_x23_x19=[
0,0,7.8|
0,1,2.8|
0,2,3.1|
1,0,5.2|
1,1,2.8|
1,2,1|
2,0,2.1|
2,1,1.9|
2,2,8.6|
];
constraint_x23_x20=[
0,0,1.7|
0,1,4.2|
0,2,5|
1,0,3.5|
1,1,1.5|
1,2,0.75|
2,0,5.1|
2,1,0.84|
2,2,0.1|
];
constraint_x23_x21=[
0,0,6.5|
0,1,1.6|
0,2,9.1|
1,0,6.6|
1,1,3.1|
1,2,5.3|
2,0,1.2|
2,1,8.1|
2,2,4.8|
];
constraint_x23_x22=[
0,0,8.7|
0,1,9.2|
0,2,8.7|
1,0,2.2|
1,1,8.2|
1,2,3.8|
2,0,2.2|
2,1,1.5|
2,2,5.4|
];
constraint_x24_x1=[
0,0,9.8|
0,1,0.4|
0,2,8.9|
1,0,6.4|
1,1,8.3|
1,2,7.6|
2,0,5.7|
2,1,6.8|
2,2,0.84|
];
constraint_x24_x3=[
0,0,1.8|
0,1,9.5|
0,2,5.6|
1,0,9.7|
1,1,3.6|
1,2,9.2|
2,0,0.31|
2,1,1.6|
2,2,6.8|
];
constraint_x24_x6=[
0,0,3.8|
0,1,7.7|
0,2,6.9|
1,0,4.8|
1,1,6.6|
1,2,8.1|
2,0,9.7|
2,1,6.5|
2,2,7.9|
];
constraint_x24_x7=[
0,0,1.2|
0,1,2.3|
0,2,0.64|
1,0,2.6|
1,1,9.6|
1,2,7.2|
2,0,3.2|
2,1,6.4|
2,2,8.2|
];
constraint_x24_x10=[
0,0,2.3|
0,1,6.8|
0,2,4.8|
1,0,4|
1,1,9.2|
1,2,6.3|
2,0,8.5|
2,1,4.2|
2,2,6.5|
];
constraint_x24_x11=[
0,0,9.9|
0,1,0.13|
0,2,7.6|
1,0,4.2|
1,1,6.9|
1,2,7.2|
2,0,2.8|
2,1,7.5|
2,2,0.49|
];
constraint_x24_x12=[
0,0,1.7|
0,1,6.4|
0,2,8.5|
1,0,0.16|
1,1,10|
1,2,6.6|
2,0,2.4|
2,1,9.6|
2,2,7.2|
];
constraint_x24_x13=[
0,0,8.2|
0,1,0.27|
0,2,3.3|
1,0,9.2|
1,1,0.061|
1,2,4.7|
2,0,4|
2,1,1.3|
2,2,0.057|
];
constraint_x24_x14=[
0,0,8.1|
0,1,9.9|
0,2,8.4|
1,0,9|
1,1,5.9|
1,2,7.9|
2,0,0.34|
2,1,4.5|
2,2,5.9|
];
constraint_x24_x22=[
0,0,6.8|
0,1,4.6|
0,2,3|
1,0,3|
1,1,6|
1,2,6.7|
2,0,4.4|
2,1,7.8|
2,2,8.5|
];
constraint_x25_x1=[
0,0,1.7|
0,1,9.1|
0,2,0.64|
1,0,1.2|
1,1,8.8|
1,2,7.6|
2,0,7.8|
2,1,4.1|
2,2,7.2|
];
constraint_x25_x6=[
0,0,5.7|
0,1,9.6|
0,2,5.3|
1,0,4.4|
1,1,0.63|
1,2,5.1|
2,0,3.4|
2,1,4.2|
2,2,7.1|
];
constraint_x25_x8=[
0,0,6.9|
0,1,2.4|
0,2,1.3|
1,0,10|
1,1,0.11|
1,2,8.9|
2,0,2.6|
2,1,5.3|
2,2,3.9|
];
constraint_x25_x10=[
0,0,0.31|
0,1,8.5|
0,2,6.1|
1,0,2.9|
1,1,3.9|
1,2,6.8|
2,0,1|
2,1,6.6|
2,2,8.9|
];
constraint_x25_x13=[
0,0,3.3|
0,1,9.7|
0,2,8.8|
1,0,0.6|
1,1,6.6|
1,2,7.6|
2,0,3.6|
2,1,1.2|
2,2,1.5|
];
constraint_x25_x15=[
0,0,4.4|
0,1,8.6|
0,2,9.2|
1,0,4.9|
1,1,0.91|
1,2,6.6|
2,0,7.8|
2,1,8.1|
2,2,7|
];
constraint_x25_x16=[
0,0,3.8|
0,1,4.6|
0,2,9|
1,0,9.5|
1,1,0.93|
1,2,0.22|
2,0,5.2|
2,1,8.5|
2,2,5|
];
constraint_x25_x18=[
0,0,3.1|
0,1,4.1|
0,2,7.3|
1,0,6|
1,1,8.3|
1,2,2.6|
2,0,2.6|
2,1,0.74|
2,2,0.98|
];
constraint_x25_x19=[
0,0,3.1|
0,1,5.3|
0,2,9.1|
1,0,1.6|
1,1,5.5|
1,2,1.4|
2,0,9.8|
2,1,7.4|
2,2,0.83|
];
constraint_x25_x20=[
0,0,4.8|
0,1,3.8|
0,2,6.3|
1,0,4.6|
1,1,5.8|
1,2,6|
2,0,1.6|
2,1,8.4|
2,2,4.7|
];
constraint_x25_x21=[
0,0,9.3|
0,1,6.6|
0,2,5.6|
1,0,3|
1,1,4.9|
1,2,7.4|
2,0,2.8|
2,1,8.6|
2,2,6.3|
];
constraint_x25_x24=[
0,0,5.7|
0,1,7.3|
0,2,7.3|
1,0,6.6|
1,1,3.3|
1,2,0.52|
2,0,5.5|
2,1,1.5|
2,2,4.7|
];
constraint_x26_x3=[
0,0,0.4|
0,1,7.6|
0,2,3.1|
1,0,5.6|
1,1,6|
1,2,5.1|
2,0,2|
2,1,8.1|
2,2,9.6|
];
constraint_x26_x4=[
0,0,1.7|
0,1,4.4|
0,2,4.8|
1,0,1.1|
1,1,8.1|
1,2,8.2|
2,0,6.9|
2,1,9.6|
2,2,4.1|
];
constraint_x26_x5=[
0,0,0.34|
0,1,8.2|
0,2,8.7|
1,0,6.3|
1,1,1.3|
1,2,1.7|
2,0,4.9|
2,1,9.9|
2,2,6.7|
];
constraint_x26_x6=[
0,0,5.7|
0,1,6.1|
0,2,5|
1,0,4.7|
1,1,4.7|
1,2,3.9|
2,0,2.2|
2,1,7.8|
2,2,3.3|
];
constraint_x26_x11=[
0,0,5.2|
0,1,2.2|
0,2,8.7|
1,0,4.7|
1,1,8.2|
1,2,8.8|
2,0,5.3|
2,1,8.4|
2,2,1.5|
];
constraint_x26_x12=[
0,0,6.9|
0,1,8.4|
0,2,2.4|
1,0,1|
1,1,4.9|
1,2,1.3|
2,0,4.1|
2,1,9.1|
2,2,2.9|
];
constraint_x26_x14=[
0,0,8|
0,1,3.5|
0,2,9.5|
1,0,8.6|
1,1,8.7|
1,2,9.2|
2,0,6.4|
2,1,9.7|
2,2,2.5|
];
constraint_x26_x17=[
0,0,1.7|
0,1,3.6|
0,2,3.2|
1,0,2.8|
1,1,1.8|
1,2,9.2|
2,0,5.5|
2,1,7.2|
2,2,8.3|
];
constraint_x26_x18=[
0,0,9.2|
0,1,9|
0,2,6.9|
1,0,5.8|
1,1,3.3|
1,2,1.8|
2,0,0.12|
2,1,7.5|
2,2,3.8|
];
constraint_x26_x19=[
0,0,5.6|
0,1,8.5|
0,2,1.5|
1,0,0.74|
1,1,9.3|
1,2,2|
2,0,7.9|
2,1,5.7|
2,2,8.8|
];
constraint_x27_x1=[
0,0,6.1|
0,1,5.1|
0,2,8.7|
1,0,2|
1,1,7.2|
1,2,9|
2,0,9.1|
2,1,5.3|
2,2,0.39|
];
constraint_x27_x5=[
0,0,5.7|
0,1,6.5|
0,2,1|
1,0,9.2|
1,1,1.3|
1,2,6.4|
2,0,0.75|
2,1,1.2|
2,2,7.9|
];
constraint_x27_x7=[
0,0,5.1|
0,1,1.3|
0,2,2.1|
1,0,3.2|
1,1,5.3|
1,2,9.1|
2,0,9.9|
2,1,6.3|
2,2,9.3|
];
constraint_x27_x10=[
0,0,2.7|
0,1,0.71|
0,2,7.4|
1,0,0.0093|
1,1,5.2|
1,2,8|
2,0,6.4|
2,1,5.1|
2,2,1.7|
];
constraint_x27_x12=[
0,0,5.5|
0,1,2|
0,2,1.7|
1,0,6|
1,1,1|
1,2,8.9|
2,0,7.8|
2,1,2.8|
2,2,0.1|
];
constraint_x27_x13=[
0,0,3.9|
0,1,4.1|
0,2,6.4|
1,0,1.1|
1,1,4.4|
1,2,3.1|
2,0,4|
2,1,7.6|
2,2,8.5|
];
constraint_x27_x16=[
0,0,1.8|
0,1,2.5|
0,2,5.2|
1,0,5.9|
1,1,7.5|
1,2,3.3|
2,0,10|
2,1,1.3|
2,2,8.7|
];
constraint_x27_x17=[
0,0,9.8|
0,1,3.8|
0,2,6|
1,0,3.7|
1,1,0.57|
1,2,1.7|
2,0,1.8|
2,1,4|
2,2,9.1|
];
constraint_x27_x18=[
0,0,3.2|
0,1,5.1|
0,2,8.3|
1,0,3|
1,1,7.9|
1,2,4|
2,0,7.3|
2,1,3.2|
2,2,4.2|
];
constraint_x27_x25=[
0,0,9.6|
0,1,2.3|
0,2,8.7|
1,0,5|
1,1,0.68|
1,2,6.2|
2,0,2.2|
2,1,1.1|
2,2,0.71|
];
constraint_x27_x26=[
0,0,1.9|
0,1,4.9|
0,2,9.8|
1,0,5.9|
1,1,2.5|
1,2,6.2|
2,0,9.7|
2,1,7.7|
2,2,2.1|
];
constraint_x28_x1=[
0,0,0.49|
0,1,1.4|
0,2,9|
1,0,5.6|
1,1,5|
1,2,8.4|
2,0,8.4|
2,1,4.4|
2,2,1.9|
];
constraint_x28_x2=[
0,0,6.3|
0,1,5|
0,2,6.9|
1,0,9.4|
1,1,8.6|
1,2,7.5|
2,0,8.1|
2,1,8.8|
2,2,9.8|
];
constraint_x28_x3=[
0,0,4.9|
0,1,2.1|
0,2,2|
1,0,6.8|
1,1,5.2|
1,2,8.9|
2,0,1.7|
2,1,4.9|
2,2,5.8|
];
constraint_x28_x4=[
0,0,0.22|
0,1,7|
0,2,7|
1,0,7.7|
1,1,9.5|
1,2,4.2|
2,0,0.067|
2,1,1.1|
2,2,8|
];
constraint_x28_x5=[
0,0,2.2|
0,1,8.3|
0,2,4.6|
1,0,0.097|
1,1,5.6|
1,2,7.3|
2,0,2.2|
2,1,0.82|
2,2,9.3|
];
constraint_x28_x7=[
0,0,2.5|
0,1,0.17|
0,2,8.1|
1,0,5.1|
1,1,3.6|
1,2,7.3|
2,0,5.7|
2,1,2.3|
2,2,4.7|
];
constraint_x28_x10=[
0,0,6.4|
0,1,2.5|
0,2,1.2|
1,0,5.3|
1,1,6.2|
1,2,2.3|
2,0,0.6|
2,1,6.2|
2,2,9.7|
];
constraint_x28_x13=[
0,0,5.6|
0,1,9.6|
0,2,0.76|
1,0,6.2|
1,1,0.73|
1,2,3.6|
2,0,2|
2,1,2.6|
2,2,6.6|
];
constraint_x28_x14=[
0,0,9.1|
0,1,0.042|
0,2,3.7|
1,0,5.8|
1,1,1.6|
1,2,7.8|
2,0,1.1|
2,1,7.7|
2,2,9.3|
];
constraint_x28_x15=[
0,0,8.1|
0,1,5|
0,2,7.8|
1,0,3.4|
1,1,1.3|
1,2,1.9|
2,0,6.5|
2,1,0.46|
2,2,4.6|
];
constraint_x28_x17=[
0,0,6.9|
0,1,0.94|
0,2,4.5|
1,0,9.6|
1,1,3.5|
1,2,9.1|
2,0,6.9|
2,1,7.8|
2,2,0.36|
];
constraint_x28_x19=[
0,0,6.3|
0,1,5.1|
0,2,2.1|
1,0,2.1|
1,1,2.5|
1,2,4.9|
2,0,9.6|
2,1,2.3|
2,2,7|
];
constraint_x28_x20=[
0,0,6.7|
0,1,5.6|
0,2,8.3|
1,0,1.3|
1,1,5.6|
1,2,4.6|
2,0,3|
2,1,4.5|
2,2,7.1|
];
constraint_x28_x22=[
0,0,8.2|
0,1,1.9|
0,2,1.6|
1,0,7.7|
1,1,3.7|
1,2,4.7|
2,0,7.1|
2,1,5.2|
2,2,8.6|
];
constraint_x28_x24=[
0,0,3|
0,1,9.6|
0,2,5.2|
1,0,6.2|
1,1,4.5|
1,2,4.8|
2,0,7.9|
2,1,2.5|
2,2,9.8|
];
constraint_x28_x25=[
0,0,2.5|
0,1,5.4|
0,2,8.5|
1,0,9.6|
1,1,7.9|
1,2,1.4|
2,0,9.1|
2,1,9.3|
2,2,0.58|
];
constraint_x29_x3=[
0,0,4.8|
0,1,7.3|
0,2,2.5|
1,0,5.2|
1,1,4.3|
1,2,4.6|
2,0,7.7|
2,1,8.9|
2,2,2.6|
];
constraint_x29_x4=[
0,0,8.7|
0,1,5.5|
0,2,0.35|
1,0,0.31|
1,1,3.4|
1,2,6.5|
2,0,8.1|
2,1,7.5|
2,2,2.2|
];
constraint_x29_x6=[
0,0,5.7|
0,1,9.1|
0,2,0.83|
1,0,7.3|
1,1,2.7|
1,2,0.2|
2,0,7.6|
2,1,3.5|
2,2,7.5|
];
constraint_x29_x8=[
0,0,7.4|
0,1,7.4|
0,2,3.4|
1,0,2.1|
1,1,0.65|
1,2,1.3|
2,0,9.1|
2,1,0.65|
2,2,7.4|
];
constraint_x29_x9=[
0,0,6.6|
0,1,6.7|
0,2,3|
1,0,1.2|
1,1,1.1|
1,2,2.7|
2,0,3.5|
2,1,1.5|
2,2,4.2|
];
constraint_x29_x11=[
0,0,10|
0,1,0.96|
0,2,1.9|
1,0,3.3|
1,1,4.7|
1,2,9.6|
2,0,5.5|
2,1,3.9|
2,2,8.7|
];
constraint_x29_x12=[
0,0,6.4|
0,1,4.3|
0,2,7.8|
1,0,2.4|
1,1,7.8|
1,2,0.97|
2,0,9|
2,1,6.3|
2,2,0.89|
];
constraint_x29_x16=[
0,0,1.9|
0,1,4.2|
0,2,6.8|
1,0,5.4|
1,1,8|
1,2,3.6|
2,0,10|
2,1,7.1|
2,2,5.3|
];
constraint_x29_x17=[
0,0,6.4|
0,1,0.46|
0,2,4|
1,0,0.42|
1,1,9.4|
1,2,3.2|
2,0,4.1|
2,1,4.7|
2,2,1.7|
];
constraint_x29_x22=[
0,0,9.6|
0,1,2.1|
0,2,4.6|
1,0,9.2|
1,1,6.5|
1,2,8.6|
2,0,4.3|
2,1,5.3|
2,2,4.7|
];
constraint_x29_x24=[
0,0,9|
0,1,2.6|
0,2,9.8|
1,0,5.4|
1,1,3.5|
1,2,2.7|
2,0,7.6|
2,1,3.4|
2,2,5.8|
];
constraint_x29_x27=[
0,0,3.5|
0,1,3.6|
0,2,4.8|
1,0,3.8|
1,1,3.2|
1,2,5.3|
2,0,7.4|
2,1,2.7|
2,2,2.6|
];
constraint_x29_x28=[
0,0,3.3|
0,1,9.2|
0,2,5.6|
1,0,6.7|
1,1,5|
1,2,0.74|
2,0,5.2|
2,1,7.1|
2,2,5.6|
];
constraint_x30_x1=[
0,0,0.78|
0,1,9.8|
0,2,1.1|
1,0,5|
1,1,4.3|
1,2,3.6|
2,0,6.9|
2,1,7.2|
2,2,7.8|
];
constraint_x30_x2=[
0,0,7.4|
0,1,7.2|
0,2,7.7|
1,0,1.2|
1,1,4.9|
1,2,6.7|
2,0,0.21|
2,1,2.5|
2,2,1.9|
];
constraint_x30_x3=[
0,0,1.9|
0,1,3.2|
0,2,5.3|
1,0,2.1|
1,1,9.2|
1,2,5.1|
2,0,5.8|
2,1,7.3|
2,2,0.65|
];
constraint_x30_x5=[
0,0,9.6|
0,1,8.1|
0,2,1.7|
1,0,5.6|
1,1,9.4|
1,2,4.8|
2,0,8.3|
2,1,2.1|
2,2,7.8|
];
constraint_x30_x6=[
0,0,0.94|
0,1,6.5|
0,2,4.8|
1,0,4.4|
1,1,5.6|
1,2,1.2|
2,0,6.3|
2,1,7|
2,2,3.3|
];
constraint_x30_x7=[
0,0,5.9|
0,1,7.6|
0,2,8|
1,0,3.1|
1,1,5|
1,2,4.5|
2,0,4.4|
2,1,7.5|
2,2,2|
];
constraint_x30_x9=[
0,0,3.3|
0,1,6.3|
0,2,4.2|
1,0,6.8|
1,1,9.4|
1,2,3.3|
2,0,8.5|
2,1,5.7|
2,2,8.6|
];
constraint_x30_x10=[
0,0,1|
0,1,9.2|
0,2,4.3|
1,0,0.53|
1,1,7.9|
1,2,4.9|
2,0,8.4|
2,1,7.8|
2,2,4.1|
];
constraint_x30_x16=[
0,0,6.2|
0,1,6.5|
0,2,1.4|
1,0,10|
1,1,4.5|
1,2,9.7|
2,0,0.24|
2,1,0.37|
2,2,5.9|
];
constraint_x30_x18=[
0,0,3.9|
0,1,3.1|
0,2,5.1|
1,0,9.3|
1,1,7.2|
1,2,9.6|
2,0,4.3|
2,1,2.6|
2,2,1.7|
];
constraint_x30_x19=[
0,0,4.2|
0,1,4.3|
0,2,0.56|
1,0,9.8|
1,1,5.3|
1,2,9.3|
2,0,9.6|
2,1,2.8|
2,2,4.3|
];
constraint_x30_x21=[
0,0,0.47|
0,1,5.4|
0,2,9.3|
1,0,8.9|
1,1,5|
1,2,1.6|
2,0,1.5|
2,1,7.2|
2,2,5.6|
];
constraint_x30_x22=[
0,0,0.63|
0,1,2.3|
0,2,7.7|
1,0,4.4|
1,1,6.5|
1,2,0.98|
2,0,2.8|
2,1,8.9|
2,2,7.8|
];
constraint_x30_x26=[
0,0,6.7|
0,1,0.35|
0,2,4.8|
1,0,1.9|
1,1,0.33|
1,2,5.1|
2,0,7.5|
2,1,1.6|
2,2,6.7|
];
constraint_x30_x29=[
0,0,5.6|
0,1,4.2|
0,2,1.4|
1,0,1.8|
1,1,3.6|
1,2,7.4|
2,0,8.6|
2,1,7.6|
2,2,0.82|
];
constraint_x31_x1=[
0,0,8.3|
0,1,5.9|
0,2,4.4|
1,0,4.4|
1,1,3.7|
1,2,9.8|
2,0,4|
2,1,8|
2,2,4.3|
];
constraint_x31_x3=[
0,0,5|
0,1,4.8|
0,2,3.8|
1,0,6.4|
1,1,5.5|
1,2,2.2|
2,0,6.8|
2,1,8.5|
2,2,2.4|
];
constraint_x31_x5=[
0,0,2.5|
0,1,7.5|
0,2,7.6|
1,0,3.3|
1,1,8.5|
1,2,8|
2,0,8.8|
2,1,6.3|
2,2,8.5|
];
constraint_x31_x6=[
0,0,8|
0,1,4.1|
0,2,2.3|
1,0,6.2|
1,1,2.9|
1,2,9.8|
2,0,2.7|
2,1,4.7|
2,2,5.3|
];
constraint_x31_x7=[
0,0,6.8|
0,1,2.6|
0,2,5.5|
1,0,0.26|
1,1,6.9|
1,2,8.8|
2,0,2.4|
2,1,6.5|
2,2,4.2|
];
constraint_x31_x10=[
0,0,1.8|
0,1,4.5|
0,2,1.7|
1,0,9.3|
1,1,0.9|
1,2,8.2|
2,0,9.5|
2,1,4.8|
2,2,6.1|
];
constraint_x31_x11=[
0,0,3.2|
0,1,2.7|
0,2,1.8|
1,0,5.2|
1,1,8.4|
1,2,6.5|
2,0,4.9|
2,1,0.47|
2,2,1.4|
];
constraint_x31_x12=[
0,0,1.8|
0,1,5.7|
0,2,7.8|
1,0,8.3|
1,1,8.8|
1,2,8.8|
2,0,6.9|
2,1,5.1|
2,2,6.6|
];
constraint_x31_x13=[
0,0,4.3|
0,1,3.5|
0,2,10|
1,0,7.9|
1,1,5.8|
1,2,9.5|
2,0,9.5|
2,1,0.099|
2,2,5.2|
];
constraint_x31_x14=[
0,0,6.5|
0,1,7.3|
0,2,1.4|
1,0,1.2|
1,1,1.1|
1,2,9.3|
2,0,1.1|
2,1,4.9|
2,2,0.42|
];
constraint_x31_x15=[
0,0,6.8|
0,1,3.9|
0,2,4.2|
1,0,5.4|
1,1,10|
1,2,8.2|
2,0,3.8|
2,1,7.2|
2,2,7.3|
];
constraint_x31_x16=[
0,0,4.5|
0,1,3.2|
0,2,1.2|
1,0,8|
1,1,7.2|
1,2,5|
2,0,7.5|
2,1,0.31|
2,2,5|
];
constraint_x31_x20=[
0,0,5.9|
0,1,7.1|
0,2,6|
1,0,9.2|
1,1,0.85|
1,2,0.43|
2,0,9.9|
2,1,6.8|
2,2,5.4|
];
constraint_x31_x21=[
0,0,4.6|
0,1,9|
0,2,4.8|
1,0,6.8|
1,1,4.1|
1,2,0.18|
2,0,9.7|
2,1,7.6|
2,2,0.021|
];
constraint_x31_x23=[
0,0,9.6|
0,1,5.7|
0,2,5.4|
1,0,1.2|
1,1,8.1|
1,2,3.8|
2,0,3|
2,1,6.1|
2,2,0.13|
];
constraint_x31_x24=[
0,0,7.1|
0,1,0.53|
0,2,7.1|
1,0,2.7|
1,1,1.2|
1,2,9.3|
2,0,0.71|
2,1,3.9|
2,2,7.8|
];
constraint_x31_x25=[
0,0,2|
0,1,2.7|
0,2,3.7|
1,0,4.9|
1,1,2.8|
1,2,1.1|
2,0,5.9|
2,1,9.7|
2,2,7.4|
];
constraint_x31_x26=[
0,0,7|
0,1,7.9|
0,2,1.3|
1,0,1.3|
1,1,8.8|
1,2,6.4|
2,0,1.6|
2,1,7.6|
2,2,1.5|
];
constraint_x31_x28=[
0,0,8.2|
0,1,3.1|
0,2,3.1|
1,0,5.9|
1,1,2.3|
1,2,4.5|
2,0,8.1|
2,1,4.9|
2,2,4.6|
];
constraint_x31_x29=[
0,0,0.51|
0,1,6.6|
0,2,8.7|
1,0,5.3|
1,1,9.8|
1,2,6.1|
2,0,9.6|
2,1,6.9|
2,2,6.3|
];
constraint_x31_x30=[
0,0,0.15|
0,1,4.5|
0,2,5.2|
1,0,5.1|
1,1,4.5|
1,2,5.8|
2,0,10|
2,1,7.3|
2,2,4.6|
];
constraint_x32_x4=[
0,0,6.7|
0,1,5.3|
0,2,7.4|
1,0,8.5|
1,1,6.7|
1,2,0.99|
2,0,4.3|
2,1,8.3|
2,2,0.017|
];
constraint_x32_x6=[
0,0,4|
0,1,8.8|
0,2,7.6|
1,0,3.8|
1,1,7|
1,2,1.1|
2,0,8.4|
2,1,9.8|
2,2,7|
];
constraint_x32_x9=[
0,0,5.2|
0,1,0.57|
0,2,1.9|
1,0,6.6|
1,1,5.1|
1,2,8.6|
2,0,4.3|
2,1,4|
2,2,9.8|
];
constraint_x32_x13=[
0,0,1.9|
0,1,9.3|
0,2,0.79|
1,0,5.6|
1,1,8.8|
1,2,3|
2,0,5.6|
2,1,4.8|
2,2,4.8|
];
constraint_x32_x14=[
0,0,2.2|
0,1,9|
0,2,0.078|
1,0,9.9|
1,1,8|
1,2,9.7|
2,0,9|
2,1,3.1|
2,2,5.4|
];
constraint_x32_x15=[
0,0,8.9|
0,1,1.3|
0,2,3.9|
1,0,8.1|
1,1,3.4|
1,2,9.9|
2,0,2.6|
2,1,3.9|
2,2,6|
];
constraint_x32_x16=[
0,0,0.038|
0,1,8.1|
0,2,6.4|
1,0,2|
1,1,6.8|
1,2,9.5|
2,0,3.7|
2,1,7|
2,2,0.18|
];
constraint_x32_x19=[
0,0,5|
0,1,8.4|
0,2,4.7|
1,0,7.5|
1,1,5.4|
1,2,4.4|
2,0,10|
2,1,4.9|
2,2,0.052|
];
constraint_x32_x20=[
0,0,8|
0,1,3.1|
0,2,7.7|
1,0,5.6|
1,1,4.1|
1,2,9.6|
2,0,1.4|
2,1,9.4|
2,2,3.1|
];
constraint_x32_x22=[
0,0,9|
0,1,0.21|
0,2,3.8|
1,0,1.9|
1,1,2.3|
1,2,0.46|
2,0,6.1|
2,1,4.3|
2,2,0.42|
];
constraint_x32_x23=[
0,0,3.2|
0,1,3.5|
0,2,5.7|
1,0,5.2|
1,1,1.4|
1,2,9.7|
2,0,1.6|
2,1,1.1|
2,2,7.5|
];
constraint_x32_x24=[
0,0,5.1|
0,1,0.28|
0,2,5.9|
1,0,2.3|
1,1,8|
1,2,2.2|
2,0,4.3|
2,1,0.22|
2,2,7.7|
];
constraint_x32_x25=[
0,0,7.9|
0,1,8|
0,2,8.9|
1,0,7.4|
1,1,0.52|
1,2,9|
2,0,8.7|
2,1,5.8|
2,2,2|
];
constraint_x32_x29=[
0,0,4.2|
0,1,8.7|
0,2,8.9|
1,0,6|
1,1,6.2|
1,2,4.8|
2,0,0.8|
2,1,1.8|
2,2,0.78|
];
constraint_x32_x31=[
0,0,5.8|
0,1,0.3|
0,2,2|
1,0,0.46|
1,1,9.8|
1,2,3.2|
2,0,4.2|
2,1,1.1|
2,2,6.2|
];
constraint_x33_x1=[
0,0,3.4|
0,1,6.2|
0,2,2.1|
1,0,8.7|
1,1,1.2|
1,2,6.5|
2,0,7.1|
2,1,6.8|
2,2,8.4|
];
constraint_x33_x2=[
0,0,3.5|
0,1,3.9|
0,2,3.1|
1,0,9.2|
1,1,3|
1,2,6.4|
2,0,8.8|
2,1,9.8|
2,2,2.9|
];
constraint_x33_x3=[
0,0,8|
0,1,4.6|
0,2,3.1|
1,0,5.8|
1,1,10|
1,2,9|
2,0,9|
2,1,8.6|
2,2,5.9|
];
constraint_x33_x4=[
0,0,3.3|
0,1,0.38|
0,2,2.6|
1,0,0.23|
1,1,2.5|
1,2,2.3|
2,0,10|
2,1,8.7|
2,2,8.3|
];
constraint_x33_x8=[
0,0,7.4|
0,1,5.7|
0,2,9.3|
1,0,2.1|
1,1,7.5|
1,2,8.9|
2,0,4.8|
2,1,7|
2,2,0.1|
];
constraint_x33_x9=[
0,0,3.2|
0,1,1.7|
0,2,8.1|
1,0,3.5|
1,1,1.8|
1,2,1.5|
2,0,5.6|
2,1,8.8|
2,2,7.6|
];
constraint_x33_x11=[
0,0,3.7|
0,1,2.3|
0,2,9.2|
1,0,1.8|
1,1,0.44|
1,2,6.6|
2,0,7.2|
2,1,7.3|
2,2,5.3|
];
constraint_x33_x13=[
0,0,0.24|
0,1,9.6|
0,2,1.2|
1,0,6.7|
1,1,1.6|
1,2,7.8|
2,0,1.6|
2,1,3.9|
2,2,2.5|
];
constraint_x33_x16=[
0,0,0.98|
0,1,9.8|
0,2,9.1|
1,0,4.7|
1,1,2.2|
1,2,6.3|
2,0,4.4|
2,1,9.8|
2,2,6.9|
];
constraint_x33_x17=[
0,0,3.3|
0,1,0.2|
0,2,1.6|
1,0,3|
1,1,3.5|
1,2,5|
2,0,5.8|
2,1,5|
2,2,0.17|
];
constraint_x33_x18=[
0,0,7.8|
0,1,8.5|
0,2,3.9|
1,0,5.6|
1,1,0.79|
1,2,9.2|
2,0,6.1|
2,1,9.3|
2,2,2.4|
];
constraint_x33_x23=[
0,0,9.2|
0,1,5.7|
0,2,4.5|
1,0,7|
1,1,2.5|
1,2,7.6|
2,0,4.2|
2,1,5.8|
2,2,4.8|
];
constraint_x33_x24=[
0,0,4.7|
0,1,4.3|
0,2,5.4|
1,0,5.6|
1,1,4.5|
1,2,2.4|
2,0,4.2|
2,1,1.4|
2,2,5.7|
];
constraint_x33_x26=[
0,0,1.1|
0,1,2.8|
0,2,5|
1,0,1.5|
1,1,3.4|
1,2,0.72|
2,0,0.84|
2,1,5.8|
2,2,3.6|
];
constraint_x33_x28=[
0,0,2.2|
0,1,0.88|
0,2,0.24|
1,0,2.5|
1,1,3.3|
1,2,8.3|
2,0,1.7|
2,1,0.021|
2,2,0.99|
];
constraint_x33_x29=[
0,0,4.2|
0,1,2.9|
0,2,9|
1,0,4|
1,1,0.16|
1,2,9.8|
2,0,1.2|
2,1,1.7|
2,2,7.5|
];
constraint_x33_x31=[
0,0,6.9|
0,1,1.6|
0,2,3.7|
1,0,2.2|
1,1,4|
1,2,1.7|
2,0,4.9|
2,1,8.7|
2,2,6.7|
];
constraint_x34_x2=[
0,0,3.3|
0,1,6|
0,2,3.6|
1,0,4|
1,1,6.3|
1,2,9.8|
2,0,4.7|
2,1,0.64|
2,2,2.7|
];
constraint_x34_x5=[
0,0,0.55|
0,1,1.9|
0,2,3|
1,0,2|
1,1,6.4|
1,2,6.7|
2,0,5.7|
2,1,5.4|
2,2,0.21|
];
constraint_x34_x6=[
0,0,3.1|
0,1,4.6|
0,2,6.1|
1,0,0.16|
1,1,3.6|
1,2,2.8|
2,0,5.9|
2,1,3.4|
2,2,7.5|
];
constraint_x34_x7=[
0,0,7.8|
0,1,0.69|
0,2,5.5|
1,0,1.8|
1,1,0.98|
1,2,4.8|
2,0,4.4|
2,1,0.47|
2,2,1.5|
];
constraint_x34_x8=[
0,0,7|
0,1,6.9|
0,2,7.6|
1,0,4.1|
1,1,9.4|
1,2,7|
2,0,5.2|
2,1,9.4|
2,2,3.9|
];
constraint_x34_x11=[
0,0,0.16|
0,1,5.7|
0,2,2.7|
1,0,7.5|
1,1,9.6|
1,2,6.7|
2,0,0.12|
2,1,3.2|
2,2,1.1|
];
constraint_x34_x12=[
0,0,4.7|
0,1,3.8|
0,2,4.4|
1,0,2.5|
1,1,9.3|
1,2,7.4|
2,0,3.5|
2,1,0.81|
2,2,3|
];
constraint_x34_x13=[
0,0,1.9|
0,1,8.6|
0,2,8|
1,0,8.4|
1,1,2.3|
1,2,9.2|
2,0,6.5|
2,1,5.1|
2,2,4.8|
];
constraint_x34_x14=[
0,0,7.1|
0,1,2.6|
0,2,10|
1,0,9.6|
1,1,7.8|
1,2,9|
2,0,6.7|
2,1,6.6|
2,2,8.7|
];
constraint_x34_x15=[
0,0,7.3|
0,1,5.5|
0,2,4.8|
1,0,7.9|
1,1,5.1|
1,2,0.16|
2,0,9.4|
2,1,4.7|
2,2,2.3|
];
constraint_x34_x16=[
0,0,0.73|
0,1,1.1|
0,2,0.52|
1,0,6.9|
1,1,1.5|
1,2,0.13|
2,0,1.4|
2,1,8.7|
2,2,3.6|
];
constraint_x34_x17=[
0,0,7.3|
0,1,6.3|
0,2,2.1|
1,0,2|
1,1,6.1|
1,2,7.9|
2,0,0.18|
2,1,1.7|
2,2,3.7|
];
constraint_x34_x19=[
0,0,5.1|
0,1,9.7|
0,2,7.3|
1,0,6.3|
1,1,8.6|
1,2,4.4|
2,0,1.2|
2,1,7|
2,2,8.6|
];
constraint_x34_x22=[
0,0,9|
0,1,5.2|
0,2,7.4|
1,0,7|
1,1,7.8|
1,2,9.9|
2,0,8|
2,1,5.2|
2,2,5.7|
];
constraint_x34_x23=[
0,0,1.7|
0,1,1.7|
0,2,3.6|
1,0,3|
1,1,3.7|
1,2,4.6|
2,0,2.2|
2,1,1.3|
2,2,9.7|
];
constraint_x34_x29=[
0,0,4.9|
0,1,6.8|
0,2,0.84|
1,0,3.9|
1,1,0.01|
1,2,8.7|
2,0,7.1|
2,1,7.2|
2,2,7.3|
];
constraint_x34_x30=[
0,0,1.2|
0,1,1.4|
0,2,5.6|
1,0,9.1|
1,1,1.3|
1,2,5.6|
2,0,5.1|
2,1,7.8|
2,2,7|
];
constraint_x35_x1=[
0,0,7.8|
0,1,4|
0,2,6.8|
1,0,2.1|
1,1,7|
1,2,3.3|
2,0,7.9|
2,1,8.8|
2,2,6.4|
];
constraint_x35_x2=[
0,0,7.1|
0,1,5.5|
0,2,8.5|
1,0,7.9|
1,1,1.8|
1,2,4.3|
2,0,3.6|
2,1,4.3|
2,2,9.3|
];
constraint_x35_x3=[
0,0,10|
0,1,6.8|
0,2,8.4|
1,0,2.5|
1,1,4.7|
1,2,9.5|
2,0,3.7|
2,1,8.3|
2,2,5.7|
];
constraint_x35_x6=[
0,0,9.7|
0,1,6.3|
0,2,3.2|
1,0,6.3|
1,1,7.2|
1,2,2.8|
2,0,7|
2,1,8.3|
2,2,2.6|
];
constraint_x35_x7=[
0,0,2.8|
0,1,6|
0,2,0.035|
1,0,8.3|
1,1,4.5|
1,2,8.2|
2,0,3.8|
2,1,6.9|
2,2,2|
];
constraint_x35_x11=[
0,0,6.8|
0,1,8.8|
0,2,5.5|
1,0,6.3|
1,1,0.13|
1,2,7.2|
2,0,4.7|
2,1,0.47|
2,2,6.2|
];
constraint_x35_x13=[
0,0,3.2|
0,1,8.1|
0,2,5.3|
1,0,3.2|
1,1,9.7|
1,2,0.75|
2,0,9.1|
2,1,1.3|
2,2,1.6|
];
constraint_x35_x14=[
0,0,0.69|
0,1,5.1|
0,2,0.27|
1,0,1.4|
1,1,2.6|
1,2,1.1|
2,0,9.9|
2,1,2|
2,2,6.3|
];
constraint_x35_x15=[
0,0,9.1|
0,1,4.6|
0,2,8.6|
1,0,7.7|
1,1,2.4|
1,2,9|
2,0,3.9|
2,1,5.5|
2,2,4|
];
constraint_x35_x17=[
0,0,9|
0,1,8.4|
0,2,2.4|
1,0,5.5|
1,1,0.063|
1,2,4.9|
2,0,10|
2,1,3.6|
2,2,5.9|
];
constraint_x35_x18=[
0,0,5.6|
0,1,1.5|
0,2,1.8|
1,0,1|
1,1,5.9|
1,2,2.6|
2,0,2.7|
2,1,1.4|
2,2,8.3|
];
constraint_x35_x19=[
0,0,2.5|
0,1,7.1|
0,2,5.3|
1,0,4.7|
1,1,8.6|
1,2,9.7|
2,0,6.5|
2,1,6.4|
2,2,0.37|
];
constraint_x35_x20=[
0,0,5.2|
0,1,6.5|
0,2,4.9|
1,0,2.8|
1,1,4.6|
1,2,4.7|
2,0,7.2|
2,1,0.1|
2,2,4.7|
];
constraint_x35_x25=[
0,0,2.9|
0,1,3.4|
0,2,3.7|
1,0,3.8|
1,1,2|
1,2,5.4|
2,0,6.5|
2,1,2.9|
2,2,4.6|
];
constraint_x35_x28=[
0,0,8.3|
0,1,9.1|
0,2,5.4|
1,0,6.2|
1,1,9.5|
1,2,1.6|
2,0,5.5|
2,1,2.2|
2,2,7.3|
];
constraint_x35_x32=[
0,0,4|
0,1,8.2|
0,2,5.2|
1,0,9.6|
1,1,3.6|
1,2,5.3|
2,0,0.85|
2,1,3|
2,2,1.4|
];
constraint_x1_y1=[
0,0,2|
0,1,1.4|
0,2,8.8|
1,0,1.5|
1,1,4.1|
1,2,8.1|
2,0,0.03|
2,1,4.4|
2,2,5.8|
];
constraint_x2_y2=[
0,0,6|
0,1,7.5|
0,2,3.7|
1,0,5.8|
1,1,1.5|
1,2,9.9|
2,0,1.9|
2,1,5|
2,2,4.1|
];
constraint_x3_y3=[
0,0,6.8|
0,1,3.7|
0,2,2.3|
1,0,2.9|
1,1,9.4|
1,2,9.9|
2,0,1.5|
2,1,8.8|
2,2,9.3|
];
constraint_x4_y4=[
0,0,6.9|
0,1,8.5|
0,2,7.7|
1,0,5.1|
1,1,3.3|
1,2,3|
2,0,4.6|
2,1,8.3|
2,2,8.2|
];
constraint_x5_y5=[
0,0,1.3|
0,1,9|
0,2,8.2|
1,0,7.9|
1,1,2.4|
1,2,4.2|
2,0,7.7|
2,1,5|
2,2,8.3|
];
constraint_x6_y6=[
0,0,9.9|
0,1,0.39|
0,2,9.1|
1,0,8.9|
1,1,5.3|
1,2,1.7|
2,0,7.8|
2,1,7.3|
2,2,4.7|
];
constraint_x7_y7=[
0,0,4.7|
0,1,7.4|
0,2,6.7|
1,0,4.3|
1,1,4.5|
1,2,0.23|
2,0,1.8|
2,1,7.2|
2,2,0.13|
];
initial_distribution_y1=[0.54,0.34,0.12];
initial_distribution_y2=[0.48,0.47,0.055];
initial_distribution_y3=[0.44,0.13,0.44];
initial_distribution_y4=[0.11,0.5,0.39];
initial_distribution_y5=[0.48,0.14,0.37];
initial_distribution_y6=[0.19,0.41,0.41];
initial_distribution_y7=[0.6,0.22,0.18];
transition_y1=[
0.45,0.39,0.16|
0.098,0.68,0.22|
0.27,0.2,0.54|
];
transition_y2=[
0.43,0.54,0.028|
0.29,0.53,0.18|
0.38,0.54,0.082|
];
transition_y3=[
0.44,0.55,0.016|
0.53,0.36,0.11|
0.52,0.13,0.35|
];
transition_y4=[
0.59,0.23,0.18|
0.58,0.16,0.25|
0.51,0.2,0.29|
];
transition_y5=[
0.35,0.45,0.2|
0.32,0.52,0.16|
0.3,0.57,0.13|
];
transition_y6=[
0.38,0.42,0.2|
0.76,0.15,0.088|
0.14,0.11,0.75|
];
transition_y7=[
0.2,0.68,0.12|
0.58,0.23,0.19|
0.38,0.36,0.27|
];
